mapa = [|
         9,9,9,9,9,9,9,9,9|
         9,9,9,9,9,0,0,0,9|
         9,0,0,0,9,1,8,0,9|
         9,0,0,0,0,1,8,0,9|
         9,0,0,0,9,1,8,0,9|
         9,9,9,9,9,0,0,0,9|
         9,9,9,9,9,9,9,9,9|];
dimx = 7;
dimy = 9;
filav = 4;
colav = 3;
